U_400_3.txt

VEHICLE     CAPACITY  LOCATIONS  CUSTOMER  OPTIONS  PRIORITIES  NUMTYPS
10		150		481		400		800		3		4

CUSTOMER  DEMAND
0	 15
1	 11
2	 20
3	 19
4	 14
5	 10
6	 12
7	 16
8	 13
9	 17
10	 10
11	 19
12	 12
13	 18
14	 18
15	 11
16	 11
17	 16
18	 16
19	 14
20	 19
21	 19
22	 11
23	 20
24	 15
25	 16
26	 15
27	 20
28	 16
29	 11
30	 18
31	 16
32	 19
33	 15
34	 19
35	 16
36	 10
37	 17
38	 10
39	 18
40	 18
41	 13
42	 15
43	 13
44	 10
45	 19
46	 13
47	 16
48	 13
49	 10
50	 20
51	 13
52	 12
53	 11
54	 18
55	 20
56	 13
57	 14
58	 10
59	 19
60	 10
61	 15
62	 15
63	 16
64	 20
65	 18
66	 13
67	 19
68	 18
69	 19
70	 18
71	 15
72	 13
73	 16
74	 14
75	 16
76	 16
77	 20
78	 11
79	 15
80	 12
81	 10
82	 20
83	 18
84	 11
85	 13
86	 10
87	 12
88	 16
89	 11
90	 12
91	 12
92	 20
93	 11
94	 20
95	 12
96	 10
97	 20
98	 20
99	 15
100	 13
101	 14
102	 14
103	 18
104	 18
105	 19
106	 14
107	 15
108	 10
109	 15
110	 19
111	 10
112	 19
113	 19
114	 17
115	 18
116	 15
117	 13
118	 16
119	 18
120	 17
121	 14
122	 19
123	 12
124	 16
125	 14
126	 10
127	 15
128	 18
129	 15
130	 11
131	 11
132	 20
133	 17
134	 16
135	 11
136	 12
137	 10
138	 11
139	 14
140	 19
141	 17
142	 16
143	 18
144	 14
145	 18
146	 14
147	 17
148	 16
149	 16
150	 11
151	 15
152	 11
153	 15
154	 13
155	 11
156	 14
157	 18
158	 11
159	 16
160	 17
161	 13
162	 13
163	 17
164	 16
165	 12
166	 15
167	 10
168	 15
169	 19
170	 14
171	 18
172	 18
173	 10
174	 17
175	 12
176	 12
177	 14
178	 19
179	 15
180	 20
181	 13
182	 14
183	 11
184	 18
185	 18
186	 18
187	 13
188	 10
189	 14
190	 17
191	 11
192	 15
193	 12
194	 10
195	 10
196	 20
197	 16
198	 11
199	 11
200	 15
201	 20
202	 19
203	 10
204	 17
205	 19
206	 11
207	 10
208	 17
209	 15
210	 13
211	 11
212	 18
213	 18
214	 20
215	 15
216	 18
217	 11
218	 16
219	 15
220	 13
221	 19
222	 19
223	 13
224	 14
225	 14
226	 20
227	 17
228	 13
229	 19
230	 11
231	 12
232	 18
233	 14
234	 11
235	 18
236	 15
237	 16
238	 12
239	 13
240	 10
241	 17
242	 17
243	 15
244	 11
245	 19
246	 12
247	 12
248	 19
249	 16
250	 11
251	 12
252	 12
253	 13
254	 10
255	 12
256	 12
257	 15
258	 20
259	 19
260	 13
261	 15
262	 18
263	 13
264	 15
265	 17
266	 14
267	 13
268	 17
269	 10
270	 12
271	 16
272	 13
273	 10
274	 14
275	 11
276	 16
277	 16
278	 13
279	 11
280	 12
281	 15
282	 18
283	 15
284	 15
285	 17
286	 14
287	 14
288	 19
289	 14
290	 13
291	 12
292	 20
293	 11
294	 10
295	 14
296	 14
297	 17
298	 11
299	 20
300	 12
301	 17
302	 19
303	 17
304	 14
305	 17
306	 14
307	 18
308	 18
309	 14
310	 19
311	 18
312	 16
313	 15
314	 15
315	 10
316	 16
317	 16
318	 13
319	 11
320	 13
321	 18
322	 11
323	 17
324	 19
325	 16
326	 18
327	 16
328	 17
329	 17
330	 17
331	 19
332	 18
333	 20
334	 13
335	 14
336	 19
337	 13
338	 20
339	 15
340	 10
341	 18
342	 11
343	 17
344	 11
345	 16
346	 10
347	 12
348	 13
349	 15
350	 17
351	 18
352	 10
353	 14
354	 12
355	 14
356	 19
357	 20
358	 14
359	 20
360	 19
361	 10
362	 18
363	 13
364	 13
365	 10
366	 17
367	 20
368	 13
369	 20
370	 20
371	 13
372	 13
373	 18
374	 15
375	 15
376	 18
377	 18
378	 14
379	 15
380	 17
381	 19
382	 11
383	 17
384	 19
385	 17
386	 10
387	 15
388	 17
389	 13
390	 18
391	 20
392	 20
393	 10
394	 15
395	 18
396	 15
397	 13
398	 12
399	 17

LOCATION  XCOORD  YCOORD  CAP  READY  DUE  TYP  SERVICETIME
0		15		40		-1		0		720	 0		0
1		43		44		-1		394		634		 2		6
2		33		17		-1		360		720		 2		6
3		31		15		-1		0		360		 2		6
4		15		7		-1		214		334		 2		6
5		4		38		-1		273		513		 2		6
6		25		19		-1		523		643		 2		6
7		8		34		-1		360		720		 2		6
8		22		1		-1		565		685		 2		6
9		23		14		-1		400		520		 2		6
10		16		28		-1		123		243		 2		6
11		50		30		-1		0		360		 2		6
12		35		4		-1		453		573		 2		6
13		12		16		-1		392		632		 2		6
14		14		5		-1		0		360		 2		6
15		28		40		-1		0		360		 2		6
16		2		3		-1		478		598		 2		6
17		14		31		-1		246		486		 2		6
18		1		49		-1		411		531		 2		6
19		17		40		-1		540		660		 2		6
20		43		50		-1		0		360		 2		6
21		21		5		-1		212		332		 2		6
22		40		33		-1		360		720		 2		6
23		37		27		-1		0		360		 2		6
24		13		32		-1		547		667		 2		6
25		11		31		-1		0		360		 2		6
26		36		36		-1		0		360		 2		6
27		43		25		-1		546		666		 2		6
28		20		15		-1		105		225		 2		6
29		5		9		-1		172		412		 2		6
30		39		8		-1		360		720		 2		6
31		36		14		-1		0		360		 2		6
32		25		44		-1		433		673		 2		6
33		5		9		-1		115		235		 2		6
34		1		23		-1		243		483		 2		6
35		29		16		-1		561		681		 2		6
36		22		3		-1		0		360		 2		6
37		50		17		-1		93		213		 2		6
38		7		13		-1		467		587		 2		6
39		17		27		-1		360		720		 2		6
40		31		37		-1		574		694		 2		6
41		39		11		-1		488		608		 2		6
42		37		43		-1		0		360		 2		6
43		18		48		-1		26		146		 2		6
44		1		39		-1		388		508		 2		6
45		6		36		-1		0		360		 2		6
46		10		34		-1		542		662		 2		6
47		14		3		-1		213		333		 2		6
48		21		32		-1		399		519		 2		6
49		5		30		-1		360		720		 2		6
50		25		11		-1		374		494		 2		6
51		35		47		-1		0		360		 2		6
52		15		6		-1		342		582		 2		6
53		24		25		-1		0		360		 2		6
54		20		11		-1		403		523		 2		6
55		50		49		-1		360		720		 2		6
56		40		10		-1		426		546		 2		6
57		17		49		-1		521		641		 2		6
58		21		37		-1		361		481		 2		6
59		6		4		-1		0		360		 2		6
60		32		38		-1		0		360		 2		6
61		1		27		-1		360		720		 2		6
62		35		39		-1		124		364		 2		6
63		48		12		-1		71		191		 2		6
64		39		19		-1		360		720		 2		6
65		9		42		-1		407		527		 2		6
66		32		50		-1		360		720		 2		6
67		15		24		-1		48		288		 2		6
68		19		11		-1		529		649		 2		6
69		28		7		-1		0		360		 2		6
70		22		3		-1		409		529		 2		6
71		4		19		-1		201		321		 2		6
72		29		7		-1		0		360		 2		6
73		40		14		-1		61		181		 2		6
74		42		46		-1		564		684		 2		6
75		25		47		-1		46		166		 2		6
76		37		6		-1		360		720		 2		6
77		50		29		-1		572		692		 2		6
78		47		20		-1		360		720		 2		6
79		8		22		-1		360		720		 2		6
80		8		3		-1		360		720		 2		6
81		44		15		-1		72		312		 2		6
82		46		18		-1		0		360		 2		6
83		39		19		-1		0		360		 2		6
84		39		40		-1		187		307		 2		6
85		13		17		-1		119		239		 2		6
86		27		39		-1		360		720		 2		6
87		12		49		-1		0		360		 2		6
88		36		43		-1		360		720		 2		6
89		32		18		-1		595		715		 2		6
90		3		28		-1		360		720		 2		6
91		4		36		-1		203		443		 2		6
92		48		21		-1		228		348		 2		6
93		23		41		-1		0		360		 2		6
94		33		49		-1		204		324		 2		6
95		16		49		-1		383		623		 2		6
96		14		30		-1		359		599		 2		6
97		21		4		-1		0		360		 2		6
98		28		43		-1		460		700		 2		6
99		9		42		-1		0		360		 2		6
100		17		25		-1		360		720		 2		6
101		19		46		-1		414		534		 2		6
102		40		27		-1		360		720		 2		6
103		35		35		-1		48		288		 2		6
104		3		29		-1		52		172		 2		6
105		7		11		-1		360		720		 2		6
106		16		13		-1		0		360		 2		6
107		24		47		-1		0		360		 2		6
108		2		9		-1		0		360		 2		6
109		12		1		-1		416		536		 2		6
110		14		22		-1		98		338		 2		6
111		47		20		-1		372		492		 2		6
112		24		31		-1		23		143		 2		6
113		42		42		-1		221		341		 2		6
114		24		47		-1		249		489		 2		6
115		6		16		-1		445		565		 2		6
116		6		24		-1		365		485		 2		6
117		44		8		-1		515		635		 2		6
118		12		13		-1		456		696		 2		6
119		38		17		-1		49		169		 2		6
120		37		33		-1		0		360		 2		6
121		37		14		-1		48		168		 2		6
122		50		47		-1		511		631		 2		6
123		11		8		-1		467		587		 2		6
124		31		11		-1		423		543		 2		6
125		50		32		-1		0		360		 2		6
126		46		13		-1		241		481		 2		6
127		40		5		-1		360		720		 2		6
128		46		36		-1		360		720		 2		6
129		1		16		-1		429		669		 2		6
130		9		7		-1		235		475		 2		6
131		14		48		-1		571		691		 2		6
132		26		24		-1		594		714		 2		6
133		19		22		-1		158		278		 2		6
134		39		12		-1		360		720		 2		6
135		13		33		-1		203		323		 2		6
136		19		50		-1		21		141		 2		6
137		22		22		-1		469		589		 2		6
138		14		5		-1		425		665		 2		6
139		12		17		-1		393		633		 2		6
140		49		27		-1		544		664		 2		6
141		32		43		-1		418		538		 2		6
142		10		47		-1		454		574		 2		6
143		29		44		-1		0		360		 2		6
144		22		46		-1		227		347		 2		6
145		31		2		-1		584		704		 2		6
146		3		27		-1		27		267		 2		6
147		11		38		-1		360		720		 2		6
148		20		21		-1		360		720		 2		6
149		16		43		-1		37		277		 2		6
150		7		32		-1		40		280		 2		6
151		3		8		-1		190		430		 2		6
152		3		27		-1		0		360		 2		6
153		29		2		-1		13		253		 2		6
154		30		12		-1		360		720		 2		6
155		29		48		-1		0		360		 2		6
156		46		39		-1		513		633		 2		6
157		31		13		-1		284		524		 2		6
158		13		38		-1		360		720		 2		6
159		9		46		-1		472		592		 2		6
160		47		40		-1		8		128		 2		6
161		35		32		-1		2		242		 2		6
162		35		15		-1		395		635		 2		6
163		38		41		-1		0		360		 2		6
164		24		13		-1		438		558		 2		6
165		34		23		-1		94		214		 2		6
166		29		12		-1		94		214		 2		6
167		1		42		-1		360		720		 2		6
168		30		1		-1		177		297		 2		6
169		31		21		-1		542		662		 2		6
170		30		45		-1		397		517		 2		6
171		23		49		-1		53		173		 2		6
172		23		1		-1		170		290		 2		6
173		5		9		-1		27		147		 2		6
174		45		46		-1		424		544		 2		6
175		22		15		-1		103		343		 2		6
176		21		40		-1		559		679		 2		6
177		20		39		-1		390		510		 2		6
178		2		13		-1		360		720		 2		6
179		31		29		-1		0		360		 2		6
180		47		14		-1		437		557		 2		6
181		20		7		-1		360		720		 2		6
182		27		32		-1		0		360		 2		6
183		31		18		-1		187		307		 2		6
184		2		45		-1		111		231		 2		6
185		44		21		-1		360		720		 2		6
186		42		20		-1		140		380		 2		6
187		9		16		-1		434		554		 2		6
188		49		30		-1		360		720		 2		6
189		25		26		-1		0		360		 2		6
190		16		9		-1		421		541		 2		6
191		4		5		-1		441		681		 2		6
192		12		14		-1		360		720		 2		6
193		19		39		-1		408		648		 2		6
194		47		45		-1		0		360		 2		6
195		31		36		-1		0		360		 2		6
196		40		10		-1		23		143		 2		6
197		48		47		-1		0		360		 2		6
198		29		15		-1		462		582		 2		6
199		44		26		-1		360		720		 2		6
200		26		18		-1		366		486		 2		6
201		24		34		-1		360		720		 2		6
202		40		9		-1		188		428		 2		6
203		6		34		-1		0		360		 2		6
204		1		33		-1		0		360		 2		6
205		47		12		-1		571		691		 2		6
206		15		8		-1		491		611		 2		6
207		37		17		-1		366		606		 2		6
208		30		3		-1		360		720		 2		6
209		30		47		-1		360		720		 2		6
210		41		11		-1		145		265		 2		6
211		3		6		-1		463		703		 2		6
212		19		11		-1		547		667		 2		6
213		26		1		-1		360		720		 2		6
214		17		27		-1		220		340		 2		6
215		22		47		-1		530		650		 2		6
216		29		33		-1		360		720		 2		6
217		22		10		-1		193		313		 2		6
218		27		8		-1		0		360		 2		6
219		50		18		-1		369		609		 2		6
220		46		35		-1		0		360		 2		6
221		18		10		-1		0		360		 2		6
222		18		32		-1		296		536		 2		6
223		17		6		-1		148		268		 2		6
224		21		25		-1		221		341		 2		6
225		34		46		-1		60		180		 2		6
226		9		18		-1		136		376		 2		6
227		4		44		-1		360		720		 2		6
228		28		8		-1		0		360		 2		6
229		29		36		-1		0		360		 2		6
230		50		39		-1		248		488		 2		6
231		14		30		-1		598		718		 2		6
232		27		17		-1		454		694		 2		6
233		24		30		-1		114		354		 2		6
234		7		45		-1		0		360		 2		6
235		31		26		-1		144		264		 2		6
236		8		10		-1		360		720		 2		6
237		27		6		-1		365		485		 2		6
238		34		7		-1		430		550		 2		6
239		24		27		-1		438		558		 2		6
240		40		35		-1		173		413		 2		6
241		43		37		-1		360		720		 2		6
242		9		24		-1		424		544		 2		6
243		5		31		-1		0		360		 2		6
244		44		35		-1		360		720		 2		6
245		44		8		-1		360		720		 2		6
246		3		38		-1		155		395		 2		6
247		11		43		-1		0		360		 2		6
248		29		6		-1		399		519		 2		6
249		35		39		-1		360		720		 2		6
250		32		12		-1		52		172		 2		6
251		12		46		-1		438		558		 2		6
252		15		1		-1		229		349		 2		6
253		5		18		-1		365		605		 2		6
254		47		45		-1		360		720		 2		6
255		46		8		-1		217		337		 2		6
256		29		37		-1		532		652		 2		6
257		11		48		-1		360		720		 2		6
258		6		47		-1		504		624		 2		6
259		12		47		-1		401		521		 2		6
260		48		20		-1		360		720		 2		6
261		8		16		-1		39		159		 2		6
262		6		48		-1		561		681		 2		6
263		25		2		-1		359		599		 2		6
264		12		15		-1		463		583		 2		6
265		21		49		-1		0		360		 2		6
266		16		23		-1		0		360		 2		6
267		45		22		-1		311		551		 2		6
268		4		10		-1		390		630		 2		6
269		8		4		-1		427		667		 2		6
270		11		18		-1		424		544		 2		6
271		3		10		-1		0		360		 2		6
272		12		33		-1		0		360		 2		6
273		33		29		-1		80		320		 2		6
274		17		14		-1		360		720		 2		6
275		50		7		-1		360		720		 2		6
276		22		5		-1		0		360		 2		6
277		7		48		-1		425		545		 2		6
278		27		39		-1		0		360		 2		6
279		36		36		-1		235		355		 2		6
280		33		6		-1		360		720		 2		6
281		12		33		-1		183		303		 2		6
282		24		13		-1		0		360		 2		6
283		50		41		-1		0		360		 2		6
284		47		12		-1		130		250		 2		6
285		32		15		-1		402		522		 2		6
286		25		13		-1		510		630		 2		6
287		47		33		-1		140		260		 2		6
288		32		25		-1		76		196		 2		6
289		30		9		-1		360		720		 2		6
290		50		32		-1		379		499		 2		6
291		3		41		-1		342		582		 2		6
292		49		24		-1		360		720		 2		6
293		29		45		-1		312		552		 2		6
294		33		7		-1		360		720		 2		6
295		25		23		-1		452		692		 2		6
296		4		8		-1		33		153		 2		6
297		36		9		-1		0		360		 2		6
298		10		1		-1		360		720		 2		6
299		49		39		-1		360		720		 2		6
300		49		37		-1		360		720		 2		6
301		50		27		-1		0		360		 2		6
302		39		11		-1		32		152		 2		6
303		36		1		-1		360		720		 2		6
304		30		18		-1		360		720		 2		6
305		8		17		-1		239		479		 2		6
306		21		33		-1		259		499		 2		6
307		4		4		-1		0		360		 2		6
308		36		22		-1		177		297		 2		6
309		19		37		-1		585		705		 2		6
310		32		35		-1		69		309		 2		6
311		50		33		-1		378		498		 2		6
312		33		32		-1		360		720		 2		6
313		38		32		-1		25		145		 2		6
314		33		44		-1		360		720		 2		6
315		34		41		-1		362		482		 2		6
316		37		3		-1		323		563		 2		6
317		45		4		-1		117		237		 2		6
318		5		47		-1		464		704		 2		6
319		44		37		-1		360		720		 2		6
320		7		45		-1		260		500		 2		6
321		7		16		-1		474		594		 2		6
322		4		32		-1		488		608		 2		6
323		22		42		-1		0		360		 2		6
324		27		11		-1		341		581		 2		6
325		45		46		-1		0		360		 2		6
326		13		6		-1		360		720		 2		6
327		10		40		-1		86		206		 2		6
328		22		45		-1		369		489		 2		6
329		1		11		-1		57		177		 2		6
330		49		15		-1		360		720		 2		6
331		26		12		-1		188		308		 2		6
332		50		40		-1		178		418		 2		6
333		32		37		-1		212		332		 2		6
334		26		15		-1		462		582		 2		6
335		43		43		-1		0		360		 2		6
336		7		4		-1		402		522		 2		6
337		30		7		-1		360		720		 2		6
338		18		33		-1		250		490		 2		6
339		30		43		-1		0		360		 2		6
340		49		44		-1		185		305		 2		6
341		48		25		-1		85		205		 2		6
342		47		38		-1		0		360		 2		6
343		18		7		-1		360		720		 2		6
344		23		44		-1		517		637		 2		6
345		30		6		-1		575		695		 2		6
346		34		1		-1		0		360		 2		6
347		46		48		-1		238		358		 2		6
348		45		29		-1		0		360		 2		6
349		5		7		-1		0		360		 2		6
350		48		26		-1		185		425		 2		6
351		50		29		-1		360		720		 2		6
352		25		33		-1		0		360		 2		6
353		35		24		-1		360		720		 2		6
354		7		37		-1		244		484		 2		6
355		30		48		-1		503		623		 2		6
356		40		46		-1		360		720		 2		6
357		1		49		-1		233		353		 2		6
358		48		10		-1		571		691		 2		6
359		24		7		-1		458		578		 2		6
360		17		26		-1		110		350		 2		6
361		14		15		-1		444		564		 2		6
362		31		7		-1		123		243		 2		6
363		50		47		-1		360		720		 2		6
364		21		7		-1		244		484		 2		6
365		4		2		-1		509		629		 2		6
366		29		12		-1		301		541		 2		6
367		21		7		-1		0		360		 2		6
368		38		5		-1		360		720		 2		6
369		31		42		-1		296		536		 2		6
370		2		13		-1		156		276		 2		6
371		48		50		-1		447		687		 2		6
372		21		18		-1		0		360		 2		6
373		48		41		-1		0		360		 2		6
374		3		1		-1		0		360		 2		6
375		33		13		-1		115		355		 2		6
376		20		14		-1		521		641		 2		6
377		6		22		-1		360		720		 2		6
378		5		27		-1		239		359		 2		6
379		50		4		-1		597		717		 2		6
380		35		41		-1		353		593		 2		6
381		13		47		-1		464		704		 2		6
382		20		2		-1		339		579		 2		6
383		5		49		-1		34		154		 2		6
384		37		24		-1		360		720		 2		6
385		3		13		-1		214		334		 2		6
386		49		15		-1		229		349		 2		6
387		34		6		-1		360		720		 2		6
388		49		43		-1		17		257		 2		6
389		9		34		-1		360		720		 2		6
390		14		45		-1		159		279		 2		6
391		41		5		-1		566		686		 2		6
392		16		30		-1		56		176		 2		6
393		45		3		-1		0		360		 2		6
394		48		16		-1		206		326		 2		6
395		48		48		-1		360		720		 2		6
396		29		18		-1		375		495		 2		6
397		15		19		-1		146		266		 2		6
398		23		6		-1		494		614		 2		6
399		31		12		-1		360		480		 2		6
400		47		9		-1		360		720		 2		6
401		44		22		5		25		505		 1		4
402		27		8		4		0		720		 1		4
403		32		9		5		38		518		 1		4
404		9		27		4		0		720		 1		4
405		30		42		5		37		517		 1		4
406		37		33		5		100		580		 1		4
407		13		34		5		64		544		 1		4
408		23		25		5		0		720		 1		4
409		35		17		5		199		679		 1		4
410		12		31		5		105		585		 1		4
411		5		44		4		0		720		 1		4
412		14		19		4		0		720		 1		4
413		6		39		5		0		720		 1		4
414		19		31		5		233		713		 1		4
415		24		45		5		93		573		 1		4
416		32		12		5		0		720		 1		4
417		23		39		4		0		720		 1		4
418		20		45		5		0		720		 1		4
419		37		31		4		0		720		 1		4
420		36		34		3		0		720		 1		4
421		45		15		5		0		720		 1		4
422		11		32		5		240		720		 1		4
423		15		9		5		0		720		 1		4
424		20		40		5		14		494		 1		4
425		31		17		5		233		713		 1		4
426		13		7		5		54		534		 1		4
427		45		5		5		0		720		 1		4
428		19		27		3		0		720		 1		4
429		25		38		5		64		544		 1		4
430		25		29		3		0		720		 1		4
431		33		32		3		0		720		 1		4
432		45		14		4		0		720		 1		4
433		29		14		5		118		598		 1		4
434		22		12		4		0		720		 1		4
435		36		5		5		87		567		 1		4
436		45		8		5		0		720		 1		4
437		44		37		5		149		629		 1		4
438		35		27		5		58		538		 1		4
439		11		34		5		56		536		 1		4
440		25		15		5		70		550		 1		4
441		21		11		3		0		720		 1		4
442		42		24		4		0		720		 1		4
443		23		28		4		0		720		 1		4
444		41		18		5		238		718		 1		4
445		11		19		5		226		706		 1		4
446		30		7		4		0		720		 1		4
447		25		19		5		131		611		 1		4
448		20		32		5		0		720		 1		4
449		21		21		5		17		497		 1		4
450		37		5		5		149		629		 1		4
451		23		17		5		0		720		 1		4
452		7		32		5		220		700		 1		4
453		15		42		5		6		486		 1		4
454		6		6		5		0		720		 1		4
455		40		34		4		0		720		 1		4
456		40		16		5		214		694		 1		4
457		43		29		3		0		720		 1		4
458		29		30		5		122		602		 1		4
459		19		33		5		212		692		 1		4
460		33		32		3		0		720		 1		4
461		26		44		5		0		720		 1		4
462		40		23		5		43		523		 1		4
463		22		22		4		0		720		 1		4
464		28		41		5		80		560		 1		4
465		20		5		5		39		519		 1		4
466		41		29		5		0		720		 1		4
467		22		7		5		109		589		 1		4
468		25		28		5		155		635		 1		4
469		34		11		5		34		514		 1		4
470		18		18		5		238		718		 1		4
471		9		23		5		0		720		 1		4
472		24		19		5		46		526		 1		4
473		16		10		4		0		720		 1		4
474		16		26		5		56		536		 1		4
475		14		13		5		56		536		 1		4
476		42		37		5		0		720		 1		4
477		26		36		4		0		720		 1		4
478		16		9		3		0		720		 1		4
479		44		32		5		97		577		 1		4
480		25		39		3		0		720		 1		4
OPTION  LOCATION  CUSTOMER  PRIO  SERVICETIME   COST
0		444		0		0		2		0
1		471		1		0		2		0
2		412		2		0		2		0
3		436		3		0		2		0
4		437		4		0		2		0
5		427		5		0		2		0
6		424		6		0		2		0
7		448		7		0		2		0
8		441		8		0		2		0
9		442		9		0		2		0
10		430		10		0		2		0
11		446		11		0		2		0
12		479		12		0		2		0
13		471		13		0		2		0
14		418		14		0		2		0
15		449		15		0		2		0
16		420		16		0		2		0
17		473		17		0		2		0
18		433		18		0		2		0
19		478		19		0		2		0
20		436		20		0		2		0
21		480		21		0		2		0
22		402		22		0		2		0
23		416		23		0		2		0
24		456		24		0		2		0
25		429		25		0		2		0
26		406		26		0		2		0
27		472		27		0		2		0
28		472		28		0		2		0
29		473		29		0		2		0
30		450		30		0		2		0
31		416		31		0		2		0
32		476		32		0		2		0
33		402		33		0		2		0
34		426		34		0		2		0
35		477		35		0		2		0
36		463		36		0		2		0
37		422		37		0		2		0
38		432		38		0		2		0
39		465		39		0		2		0
40		404		40		0		2		0
41		417		41		0		2		0
42		432		42		0		2		0
43		469		43		0		2		0
44		460		44		0		2		0
45		479		45		0		2		0
46		452		46		0		2		0
47		456		47		0		2		0
48		429		48		0		2		0
49		404		49		0		2		0
50		434		50		0		2		0
51		476		51		0		2		0
52		452		52		0		2		0
53		478		53		0		2		0
54		450		54		0		2		0
55		429		55		0		2		0
56		476		56		0		2		0
57		410		57		0		2		0
58		410		58		0		2		0
59		441		59		0		2		0
60		444		60		0		2		0
61		402		61		0		2		0
62		417		62		0		2		0
63		457		63		0		2		0
64		438		64		0		2		0
65		414		65		0		2		0
66		414		66		0		2		0
67		410		67		0		2		0
68		412		68		0		2		0
69		420		69		0		2		0
70		478		70		0		2		0
71		445		71		0		2		0
72		444		72		0		2		0
73		429		73		0		2		0
74		445		74		0		2		0
75		440		75		0		2		0
76		428		76		0		2		0
77		405		77		0		2		0
78		447		78		0		2		0
79		427		79		0		2		0
80		1		80		0		5		0
81		2		81		0		5		0
82		3		82		0		5		0
83		4		83		0		5		0
84		5		84		0		5		0
85		6		85		0		5		0
86		7		86		0		5		0
87		8		87		0		5		0
88		9		88		0		5		0
89		10		89		0		5		0
90		11		90		0		5		0
91		12		91		0		5		0
92		13		92		0		5		0
93		14		93		0		5		0
94		15		94		0		5		0
95		16		95		0		5		0
96		17		96		0		5		0
97		18		97		0		5		0
98		19		98		0		5		0
99		20		99		0		5		0
100		21		100		0		5		0
101		22		101		0		5		0
102		23		102		0		5		0
103		24		103		0		5		0
104		25		104		0		5		0
105		26		105		0		5		0
106		27		106		0		5		0
107		28		107		0		5		0
108		29		108		0		5		0
109		30		109		0		5		0
110		31		110		0		5		0
111		32		111		0		5		0
112		33		112		0		5		0
113		34		113		0		5		0
114		35		114		0		5		0
115		36		115		0		5		0
116		37		116		0		5		0
117		38		117		0		5		0
118		39		118		0		5		0
119		40		119		0		5		0
120		41		120		0		5		0
121		42		121		0		5		0
122		43		122		0		5		0
123		44		123		0		5		0
124		45		124		0		5		0
125		46		125		0		5		0
126		47		126		0		5		0
127		48		127		0		5		0
128		49		128		0		5		0
129		50		129		0		5		0
130		51		130		0		5		0
131		52		131		0		5		0
132		53		132		0		5		0
133		54		133		0		5		0
134		55		134		0		5		0
135		56		135		0		5		0
136		57		136		0		5		0
137		58		137		0		5		0
138		59		138		0		5		0
139		60		139		0		5		0
140		61		140		0		5		0
141		62		141		0		5		0
142		63		142		0		5		0
143		64		143		0		5		0
144		65		144		0		5		0
145		66		145		0		5		0
146		67		146		0		5		0
147		68		147		0		5		0
148		69		148		0		5		0
149		70		149		0		5		0
150		71		150		0		5		0
151		72		151		0		5		0
152		73		152		0		5		0
153		74		153		0		5		0
154		75		154		0		5		0
155		76		155		0		5		0
156		77		156		0		5		0
157		78		157		0		5		0
158		79		158		0		5		0
159		80		159		0		5		0
160		81		160		1		5		0
161		476		160		0		2		0
162		82		161		1		5		0
163		448		161		0		2		0
164		83		162		1		5		0
165		456		162		0		2		0
166		84		163		1		5		0
167		413		163		0		2		0
168		85		164		0		5		0
169		445		164		1		2		0
170		86		165		0		5		0
171		477		165		1		2		0
172		87		166		0		5		0
173		418		166		1		2		0
174		88		167		0		5		0
175		464		167		1		2		0
176		89		168		1		5		0
177		447		168		0		2		0
178		90		169		1		5		0
179		404		169		0		2		0
180		91		170		1		5		0
181		452		170		0		2		0
182		92		171		0		5		0
183		442		171		1		2		0
184		93		172		0		5		0
185		480		172		1		2		0
186		94		173		1		5		0
187		444		173		0		2		0
188		95		174		1		5		0
189		463		174		0		2		0
190		96		175		0		5		0
191		439		175		1		2		0
192		97		176		1		5		0
193		478		176		0		2		0
194		98		177		0		5		0
195		461		177		1		2		0
196		99		178		1		5		0
197		419		178		0		2		0
198		100		179		0		5		0
199		446		179		1		2		0
200		101		180		1		5		0
201		432		180		0		2		0
202		102		181		0		5		0
203		435		181		1		2		0
204		103		182		0		5		0
205		406		182		1		2		0
206		104		183		1		5		0
207		471		183		0		2		0
208		105		184		1		5		0
209		423		184		0		2		0
210		106		185		0		5		0
211		470		185		1		2		0
212		107		186		1		5		0
213		405		186		0		2		0
214		108		187		0		5		0
215		443		187		1		2		0
216		109		188		0		5		0
217		450		188		1		2		0
218		110		189		1		5		0
219		478		189		0		2		0
220		111		190		0		5		0
221		432		190		1		2		0
222		112		191		1		5		0
223		416		191		0		2		0
224		113		192		1		5		0
225		402		192		0		2		0
226		114		193		1		5		0
227		442		193		0		2		0
228		115		194		1		5		0
229		454		194		0		2		0
230		116		195		0		5		0
231		430		195		1		2		0
232		117		196		0		5		0
233		461		196		1		2		0
234		118		197		1		5		0
235		459		197		0		2		0
236		119		198		0		5		0
237		475		198		1		2		0
238		120		199		0		5		0
239		431		199		1		2		0
240		121		200		1		5		0
241		416		200		0		2		0
242		122		201		1		5		0
243		406		201		0		2		0
244		123		202		1		5		0
245		457		202		0		2		0
246		124		203		1		5		0
247		446		203		0		2		0
248		125		204		0		5		0
249		437		204		1		2		0
250		126		205		0		5		0
251		456		205		1		2		0
252		127		206		0		5		0
253		434		206		1		2		0
254		128		207		1		5		0
255		455		207		0		2		0
256		129		208		1		5		0
257		475		208		0		2		0
258		130		209		1		5		0
259		423		209		0		2		0
260		131		210		1		5		0
261		415		210		0		2		0
262		132		211		0		5		0
263		477		211		1		2		0
264		133		212		0		5		0
265		408		212		1		2		0
266		134		213		0		5		0
267		444		213		1		2		0
268		135		214		0		5		0
269		456		214		1		2		0
270		136		215		1		5		0
271		444		215		0		2		0
272		137		216		1		5		0
273		472		216		0		2		0
274		138		217		0		5		0
275		473		217		1		2		0
276		139		218		1		5		0
277		453		218		0		2		0
278		140		219		1		5		0
279		442		219		0		2		0
280		141		220		0		5		0
281		440		220		1		2		0
282		142		221		1		5		0
283		416		221		0		2		0
284		143		222		0		5		0
285		470		222		1		2		0
286		144		223		0		5		0
287		417		223		1		2		0
288		145		224		1		5		0
289		406		224		0		2		0
290		146		225		1		5		0
291		436		225		0		2		0
292		147		226		0		5		0
293		457		226		1		2		0
294		148		227		1		5		0
295		470		227		0		2		0
296		149		228		1		5		0
297		424		228		0		2		0
298		150		229		0		5		0
299		404		229		1		2		0
300		151		230		1		5		0
301		443		230		0		2		0
302		152		231		1		5		0
303		404		231		0		2		0
304		153		232		0		5		0
305		478		232		1		2		0
306		154		233		0		5		0
307		422		233		1		2		0
308		155		234		0		5		0
309		464		234		1		2		0
310		156		235		0		5		0
311		461		235		1		2		0
312		157		236		1		5		0
313		425		236		0		2		0
314		158		237		0		5		0
315		416		237		1		2		0
316		159		238		0		5		0
317		418		238		1		2		0
318		160		239		0		5		0
319		437		239		1		2		0
320		161		240		0		5		0
321		406		240		2		2		0
322		420		240		1		2		0
323		162		241		1		5		0
324		456		241		0		2		0
325		422		241		2		2		0
326		163		242		1		5		0
327		449		242		2		2		0
328		405		242		0		2		0
329		164		243		0		5		0
330		451		243		1		2		0
331		440		243		2		2		0
332		165		244		0		5		0
333		409		244		1		2		0
334		438		244		2		2		0
335		166		245		0		5		0
336		402		245		1		2		0
337		406		245		2		2		0
338		167		246		1		5		0
339		455		246		2		2		0
340		447		246		0		2		0
341		168		247		1		5		0
342		446		247		2		2		0
343		454		247		0		2		0
344		169		248		0		5		0
345		458		248		2		2		0
346		423		248		1		2		0
347		170		249		1		5		0
348		466		249		2		2		0
349		433		249		0		2		0
350		171		250		1		5		0
351		453		250		0		2		0
352		422		250		2		2		0
353		172		251		0		5		0
354		453		251		1		2		0
355		475		251		2		2		0
356		173		252		0		5		0
357		441		252		1		2		0
358		428		252		2		2		0
359		174		253		1		5		0
360		437		253		2		2		0
361		476		253		0		2		0
362		175		254		2		5		0
363		440		254		1		2		0
364		434		254		0		2		0
365		176		255		1		5		0
366		480		255		2		2		0
367		424		255		0		2		0
368		177		256		1		5		0
369		433		256		2		2		0
370		463		256		0		2		0
371		178		257		1		5		0
372		426		257		0		2		0
373		442		257		2		2		0
374		179		258		2		5		0
375		430		258		1		2		0
376		434		258		0		2		0
377		180		259		0		5		0
378		444		259		1		2		0
379		436		259		2		2		0
380		181		260		2		5		0
381		441		260		0		2		0
382		424		260		1		2		0
383		182		261		1		5		0
384		477		261		2		2		0
385		468		261		0		2		0
386		183		262		2		5		0
387		425		262		1		2		0
388		447		262		0		2		0
389		184		263		0		5		0
390		452		263		1		2		0
391		439		263		2		2		0
392		185		264		2		5		0
393		417		264		0		2		0
394		433		264		1		2		0
395		186		265		2		5		0
396		442		265		0		2		0
397		444		265		1		2		0
398		187		266		2		5		0
399		423		266		0		2		0
400		452		266		1		2		0
401		188		267		2		5		0
402		442		267		0		2		0
403		479		267		1		2		0
404		189		268		1		5		0
405		443		268		0		2		0
406		468		268		2		2		0
407		190		269		0		5		0
408		475		269		2		2		0
409		422		269		1		2		0
410		191		270		0		5		0
411		423		270		1		2		0
412		408		270		2		2		0
413		192		271		2		5		0
414		413		271		0		2		0
415		463		271		1		2		0
416		193		272		1		5		0
417		409		272		2		2		0
418		464		272		0		2		0
419		194		273		0		5		0
420		476		273		1		2		0
421		475		273		2		2		0
422		195		274		1		5		0
423		460		274		2		2		0
424		445		274		0		2		0
425		196		275		0		5		0
426		427		275		1		2		0
427		414		275		2		2		0
428		197		276		1		5		0
429		451		276		0		2		0
430		417		276		2		2		0
431		198		277		1		5		0
432		425		277		2		2		0
433		416		277		0		2		0
434		199		278		2		5		0
435		428		278		0		2		0
436		426		278		1		2		0
437		200		279		2		5		0
438		447		279		1		2		0
439		472		279		0		2		0
440		201		280		0		5		0
441		429		280		2		2		0
442		430		280		1		2		0
443		202		281		1		5		0
444		469		281		2		2		0
445		440		281		0		2		0
446		203		282		2		5		0
447		417		282		0		2		0
448		401		282		1		2		0
449		204		283		2		5		0
450		431		283		0		2		0
451		478		283		1		2		0
452		205		284		1		5		0
453		456		284		2		2		0
454		431		284		0		2		0
455		206		285		0		5		0
456		478		285		2		2		0
457		411		285		1		2		0
458		207		286		0		5		0
459		425		286		2		2		0
460		431		286		1		2		0
461		208		287		1		5		0
462		450		287		2		2		0
463		402		287		0		2		0
464		209		288		2		5		0
465		415		288		0		2		0
466		455		288		1		2		0
467		210		289		2		5		0
468		426		289		0		2		0
469		420		289		1		2		0
470		211		290		2		5		0
471		439		290		0		2		0
472		438		290		1		2		0
473		212		291		0		5		0
474		434		291		1		2		0
475		423		291		2		2		0
476		213		292		1		5		0
477		403		292		0		2		0
478		467		292		2		2		0
479		214		293		1		5		0
480		428		293		2		2		0
481		446		293		0		2		0
482		215		294		2		5		0
483		415		294		0		2		0
484		473		294		1		2		0
485		216		295		0		5		0
486		417		295		2		2		0
487		475		295		1		2		0
488		217		296		2		5		0
489		465		296		1		2		0
490		418		296		0		2		0
491		218		297		2		5		0
492		456		297		1		2		0
493		450		297		0		2		0
494		219		298		2		5		0
495		442		298		0		2		0
496		401		298		1		2		0
497		220		299		1		5		0
498		457		299		0		2		0
499		476		299		2		2		0
500		221		300		1		5		0
501		473		300		2		2		0
502		409		300		0		2		0
503		222		301		1		5		0
504		416		301		2		2		0
505		425		301		0		2		0
506		223		302		1		5		0
507		435		302		2		2		0
508		474		302		0		2		0
509		224		303		1		5		0
510		443		303		0		2		0
511		463		303		2		2		0
512		225		304		2		5		0
513		480		304		1		2		0
514		405		304		0		2		0
515		226		305		2		5		0
516		445		305		0		2		0
517		412		305		1		2		0
518		227		306		1		5		0
519		452		306		0		2		0
520		463		306		2		2		0
521		228		307		1		5		0
522		402		307		2		2		0
523		432		307		0		2		0
524		229		308		2		5		0
525		467		308		0		2		0
526		461		308		1		2		0
527		230		309		1		5		0
528		429		309		0		2		0
529		455		309		2		2		0
530		231		310		1		5		0
531		407		310		2		2		0
532		434		310		0		2		0
533		232		311		1		5		0
534		440		311		2		2		0
535		447		311		0		2		0
536		233		312		1		5		0
537		458		312		2		2		0
538		430		312		0		2		0
539		234		313		2		5		0
540		413		313		0		2		0
541		416		313		1		2		0
542		235		314		0		5		0
543		431		314		2		2		0
544		438		314		1		2		0
545		236		315		0		5		0
546		479		315		1		2		0
547		457		315		2		2		0
548		237		316		1		5		0
549		467		316		2		2		0
550		403		316		0		2		0
551		238		317		2		5		0
552		435		317		1		2		0
553		451		317		0		2		0
554		239		318		1		5		0
555		426		318		0		2		0
556		412		318		2		2		0
557		240		319		1		5		0
558		410		319		2		2		0
559		460		319		0		2		0
560		241		320		0		5		0
561		242		320		1		5		0
562		471		320		2		2		0
563		243		321		1		5		0
564		244		321		2		5		0
565		476		321		0		2		0
566		245		322		0		5		0
567		246		322		2		5		0
568		416		322		1		2		0
569		247		323		2		5		0
570		248		323		0		5		0
571		411		323		1		2		0
572		249		324		0		5		0
573		250		324		1		5		0
574		426		324		2		2		0
575		251		325		2		5		0
576		252		325		0		5		0
577		426		325		1		2		0
578		253		326		0		5		0
579		254		326		2		5		0
580		476		326		1		2		0
581		255		327		2		5		0
582		256		327		0		5		0
583		426		327		1		2		0
584		257		328		2		5		0
585		258		328		1		5		0
586		453		328		0		2		0
587		259		329		0		5		0
588		260		329		2		5		0
589		453		329		1		2		0
590		261		330		1		5		0
591		262		330		0		5		0
592		411		330		2		2		0
593		263		331		2		5		0
594		264		331		0		5		0
595		445		331		1		2		0
596		265		332		1		5		0
597		266		332		2		5		0
598		466		332		0		2		0
599		267		333		0		5		0
600		268		333		2		5		0
601		442		333		1		2		0
602		269		334		1		5		0
603		270		334		0		5		0
604		458		334		2		2		0
605		271		335		1		5		0
606		272		335		0		5		0
607		467		335		2		2		0
608		273		336		1		5		0
609		274		336		0		5		0
610		401		336		2		2		0
611		275		337		2		5		0
612		276		337		0		5		0
613		465		337		1		2		0
614		277		338		2		5		0
615		278		338		0		5		0
616		480		338		1		2		0
617		279		339		1		5		0
618		280		339		2		5		0
619		461		339		0		2		0
620		281		340		0		5		0
621		282		340		1		5		0
622		407		340		2		2		0
623		283		341		2		5		0
624		284		341		0		5		0
625		436		341		1		2		0
626		285		342		2		5		0
627		286		342		0		5		0
628		433		342		1		2		0
629		287		343		0		5		0
630		288		343		1		5		0
631		417		343		2		2		0
632		289		344		0		5		0
633		290		344		1		5		0
634		432		344		2		2		0
635		291		345		2		5		0
636		292		345		0		5		0
637		441		345		1		2		0
638		293		346		0		5		0
639		294		346		1		5		0
640		446		346		2		2		0
641		295		347		1		5		0
642		296		347		2		5		0
643		447		347		0		2		0
644		297		348		2		5		0
645		298		348		0		5		0
646		479		348		1		2		0
647		299		349		0		5		0
648		300		349		1		5		0
649		410		349		2		2		0
650		301		350		1		5		0
651		302		350		2		5		0
652		456		350		0		2		0
653		303		351		0		5		0
654		304		351		1		5		0
655		409		351		2		2		0
656		305		352		0		5		0
657		306		352		2		5		0
658		456		352		1		2		0
659		307		353		1		5		0
660		308		353		2		5		0
661		454		353		0		2		0
662		309		354		0		5		0
663		310		354		2		5		0
664		479		354		1		2		0
665		311		355		1		5		0
666		312		355		2		5		0
667		420		355		0		2		0
668		313		356		2		5		0
669		314		356		1		5		0
670		426		356		0		2		0
671		315		357		2		5		0
672		316		357		0		5		0
673		412		357		1		2		0
674		317		358		2		5		0
675		318		358		0		5		0
676		413		358		1		2		0
677		319		359		2		5		0
678		320		359		0		5		0
679		479		359		1		2		0
680		321		360		1		5		0
681		322		360		2		5		0
682		445		360		0		2		0
683		323		361		1		5		0
684		324		361		2		5		0
685		433		361		0		2		0
686		325		362		2		5		0
687		326		362		0		5		0
688		423		362		1		2		0
689		327		363		0		5		0
690		328		363		1		5		0
691		414		363		2		2		0
692		329		364		1		5		0
693		330		364		0		5		0
694		454		364		2		2		0
695		331		365		0		5		0
696		332		365		1		5		0
697		433		365		2		2		0
698		333		366		1		5		0
699		334		366		0		5		0
700		451		366		2		2		0
701		335		367		2		5		0
702		336		367		0		5		0
703		457		367		1		2		0
704		337		368		1		5		0
705		338		368		2		5		0
706		403		368		0		2		0
707		339		369		2		5		0
708		340		369		0		5		0
709		407		369		1		2		0
710		341		370		1		5		0
711		342		370		0		5		0
712		465		370		2		2		0
713		343		371		0		5		0
714		344		371		2		5		0
715		405		371		1		2		0
716		345		372		0		5		0
717		346		372		2		5		0
718		450		372		1		2		0
719		347		373		1		5		0
720		348		373		2		5		0
721		466		373		0		2		0
722		349		374		1		5		0
723		350		374		0		5		0
724		449		374		2		2		0
725		351		375		2		5		0
726		352		375		1		5		0
727		401		375		0		2		0
728		353		376		0		5		0
729		354		376		1		5		0
730		438		376		2		2		0
731		355		377		1		5		0
732		356		377		0		5		0
733		425		377		2		2		0
734		357		378		0		5		0
735		358		378		1		5		0
736		427		378		2		2		0
737		359		379		0		5		0
738		360		379		2		5		0
739		441		379		1		2		0
740		361		380		2		5		0
741		362		380		0		5		0
742		416		380		1		2		0
743		363		381		0		5		0
744		364		381		2		5		0
745		441		381		1		2		0
746		365		382		1		5		0
747		366		382		0		5		0
748		403		382		2		2		0
749		367		383		0		5		0
750		368		383		1		5		0
751		441		383		2		2		0
752		369		384		0		5		0
753		370		384		1		5		0
754		416		384		2		2		0
755		371		385		1		5		0
756		372		385		2		5		0
757		479		385		0		2		0
758		373		386		0		5		0
759		374		386		1		5		0
760		455		386		2		2		0
761		375		387		0		5		0
762		376		387		1		5		0
763		403		387		2		2		0
764		377		388		2		5		0
765		378		388		1		5		0
766		404		388		0		2		0
767		379		389		2		5		0
768		380		389		0		5		0
769		457		389		1		2		0
770		381		390		2		5		0
771		382		390		0		5		0
772		445		390		1		2		0
773		383		391		0		5		0
774		384		391		1		5		0
775		405		391		2		2		0
776		385		392		1		5		0
777		386		392		0		5		0
778		422		392		2		2		0
779		387		393		2		5		0
780		388		393		0		5		0
781		446		393		1		2		0
782		389		394		1		5		0
783		390		394		2		5		0
784		441		394		0		2		0
785		391		395		1		5		0
786		392		395		2		5		0
787		451		395		0		2		0
788		393		396		2		5		0
789		394		396		0		5		0
790		461		396		1		2		0
791		395		397		2		5		0
792		396		397		0		5		0
793		437		397		1		2		0
794		397		398		0		5		0
795		398		398		2		5		0
796		436		398		1		2		0
797		399		399		0		5		0
798		400		399		1		5		0
799		443		399		2		2		0
